************************************************************************
file with basedata            : J1204_.BAS
initial value random generator: 1434020311
************************************************************************
projects                      :  1
jobs (incl. supersource/sink ):  122
horizon                       :  657
RESOURCES
  - renewable                 :  4   R
  - nonrenewable              :  0   N
  - doubly constrained        :  0   D
************************************************************************
PROJECT INFORMATION:
pronr.  #jobs rel.date duedate tardcost  MPM-Time
    1    120      0       91       15       91
************************************************************************
PRECEDENCE RELATIONS:
jobnr.    #modes  #successors   successors
   1        1          3           2   3   4
   2        1          3          12  13  35
   3        1          3           5   6  18
   4        1          1          43
   5        1          1           8
   6        1          3           7  15  29
   7        1          3           9  11  21
   8        1          1          46
   9        1          2          10  92
  10        1          3          20  22  30
  11        1          3          14  51 100
  12        1          3          16  81 106
  13        1          3          19  24  26
  14        1          2          49  55
  15        1          3          17  23  32
  16        1          1          50
  17        1          2          52  64
  18        1          3          31  38  59
  19        1          1          27
  20        1          3          28  44  72
  21        1          2          70 105
  22        1          2          25  96
  23        1          3          36  41  45
  24        1          1          42
  25        1          1          76
  26        1          2          67  79
  27        1          2          37 102
  28        1          3          47  70  88
  29        1          1          34
  30        1          1          33
  31        1          3          40  56 121
  32        1          1         107
  33        1          1          58
  34        1          2          60  66
  35        1          3          39  73  90
  36        1          3          48  86  92
  37        1          3          57  63  89
  38        1          1          53
  39        1          1         111
  40        1          1          71
  41        1          1          66
  42        1          1          96
  43        1          1          71
  44        1          1          80
  45        1          1         116
  46        1          1          83
  47        1          3          82  95 114
  48        1          1          54
  49        1          1          65
  50        1          1          55
  51        1          1          61
  52        1          1          86
  53        1          3          75  78  87
  54        1          1         103
  55        1          1          85
  56        1          2          62  81
  57        1          1          83
  58        1          2          65 112
  59        1          1          77
  60        1          2          69  85
  61        1          3          68  98 108
  62        1          1          77
  63        1          1          65
  64        1          1          77
  65        1          2          96 104
  66        1          1          91
  67        1          2          84  94
  68        1          1          93
  69        1          2          87  92
  70        1          1          90
  71        1          1         111
  72        1          1          74
  73        1          1         105
  74        1          1         114
  75        1          1         104
  76        1          1          84
  77        1          1         112
  78        1          1          84
  79        1          1          88
  80        1          1          97
  81        1          1          94
  82        1          1         108
  83        1          1          91
  84        1          1         101
  85        1          2          99 104
  86        1          2         110 117
  87        1          1         121
  88        1          1          94
  89        1          1          99
  90        1          1         103
  91        1          1          97
  92        1          1         119
  93        1          1         106
  94        1          2          98 101
  95        1          1         112
  96        1          1         106
  97        1          1         120
  98        1          1         109
  99        1          1         109
 100        1          1         119
 101        1          1         108
 102        1          1         107
 103        1          1         110
 104        1          1         117
 105        1          1         116
 106        1          1         110
 107        1          2         109 117
 108        1          1         111
 109        1          1         113
 110        1          2         115 116
 111        1          2         115 120
 112        1          1         113
 113        1          1         118
 114        1          1         115
 115        1          1         118
 116        1          1         121
 117        1          1         120
 118        1          1         119
 119        1          1         122
 120        1          1         122
 121        1          1         122
 122        1          0        
************************************************************************
REQUESTS/DURATIONS:
jobnr. mode duration  R 1  R 2  R 3  R 4
------------------------------------------------------------------------
  1      1     0       0    0    0    0
  2      1     5       0    0    7    0
  3      1     4       0    0    9    0
  4      1     5       0    5    0    0
  5      1     7       2    0    0    0
  6      1    10       0    0   10    0
  7      1     4       0    0    7    0
  8      1     3       0    8    0    0
  9      1     6       0    2    0    0
 10      1     6      10    0    0    0
 11      1     6       0    0    0    2
 12      1     7       0   10    0    0
 13      1     4       0    0    0    9
 14      1    10       0    0    7    0
 15      1     8       0    0    2    0
 16      1     1       0    0   10    0
 17      1     4       0    0    5    0
 18      1     3       0    0   10    0
 19      1     1       0    0   10    0
 20      1     8       0    0    6    0
 21      1     5       3    0    0    0
 22      1     7       4    0    0    0
 23      1     7       0    0    3    0
 24      1     3       0    0    0    2
 25      1     7       0    0    0    3
 26      1     4       0    0    0    7
 27      1     3       0    0    8    0
 28      1     9       0    2    0    0
 29      1     5       9    0    0    0
 30      1     6       0    0    0    7
 31      1     5       0    0    0    6
 32      1     2       0    0    0    8
 33      1     8       0    0    2    0
 34      1     6       0    0    0    2
 35      1     4       0    0    5    0
 36      1     4       0    8    0    0
 37      1    10       0    0    0    9
 38      1     7       2    0    0    0
 39      1    10       0    0    8    0
 40      1     2       3    0    0    0
 41      1    10       2    0    0    0
 42      1     7       0    0    5    0
 43      1     2       0    0    6    0
 44      1     5       0    0    7    0
 45      1     2       9    0    0    0
 46      1    10       0    0    0    9
 47      1     9       0    8    0    0
 48      1     9       0    1    0    0
 49      1     3       5    0    0    0
 50      1     5       0    0    4    0
 51      1     7       0    0    0    7
 52      1     2       5    0    0    0
 53      1     4       6    0    0    0
 54      1    10       5    0    0    0
 55      1     1       0    4    0    0
 56      1     1       0   10    0    0
 57      1     5       0    0   10    0
 58      1     7       5    0    0    0
 59      1     1       0    0    0    9
 60      1     3       0    3    0    0
 61      1     4       0    3    0    0
 62      1     9       9    0    0    0
 63      1    10       0    6    0    0
 64      1     7       0    0    0    3
 65      1     4       9    0    0    0
 66      1     6       0    5    0    0
 67      1     3       0    0    8    0
 68      1     2       9    0    0    0
 69      1     5       0    4    0    0
 70      1     3       0    0    8    0
 71      1     2       6    0    0    0
 72      1     8       0    0    0    7
 73      1    10       0    0    7    0
 74      1     7       0    0   10    0
 75      1     2       0    0    0    7
 76      1     5       0    0    0    3
 77      1    10       0    0    6    0
 78      1     4      10    0    0    0
 79      1     5       0    0    0    7
 80      1     2       0    5    0    0
 81      1     5       0    7    0    0
 82      1     7       0    0    5    0
 83      1     9       0    0    0    8
 84      1     7       0    0    1    0
 85      1    10       4    0    0    0
 86      1     8       0    0    0    3
 87      1     4       6    0    0    0
 88      1     2       5    0    0    0
 89      1     4       0    0    7    0
 90      1     3       0    0    7    0
 91      1     8       0    0    9    0
 92      1     6       0    2    0    0
 93      1     7       0    0    0    7
 94      1     5       0    8    0    0
 95      1     1       5    0    0    0
 96      1     1       5    0    0    0
 97      1     4       0    0    0    6
 98      1     2       0    3    0    0
 99      1     9       0    0    0    7
100      1     6       0    0    3    0
101      1     6       0    0    8    0
102      1    10       2    0    0    0
103      1     2       9    0    0    0
104      1    10       5    0    0    0
105      1     6       0    0    0    4
106      1     5       0    0    9    0
107      1     6       6    0    0    0
108      1     9       0    0    5    0
109      1     4       1    0    0    0
110      1    10       0    9    0    0
111      1     5       4    0    0    0
112      1     8       0    3    0    0
113      1    10       2    0    0    0
114      1     8       0    7    0    0
115      1     7       0    0    1    0
116      1     5       0    0    2    0
117      1     1       0    0    3    0
118      1     5      10    0    0    0
119      1     2       0    0    7    0
120      1     2       0    0    5    0
121      1     1       1    0    0    0
122      1     0       0    0    0    0
************************************************************************
RESOURCEAVAILABILITIES:
  R 1  R 2  R 3  R 4
   19   14   25   17
************************************************************************
